N_J = 28;
N_H = 22;
N_D = 1;
y = 6;
a = 1;
b = 1;
D = [
[0, 0, 0, 0, 0, 0, 0, 0, 0, 0, 0, 0, 0, 0, 0, 0, 0, 0, 0, 0, 0, 0, 0],
[0, 1, 4, 1, 5, 0, 4, 0, 1, 5, 3, 0, 1, 2, 4, 3, 1, 3, 4, 1, 1, 3, 0],
[0, 1, 4, 1, 5, 0, 4, 0, 1, 5, 3, 0, 1, 2, 4, 3, 1, 3, 4, 1, 1, 3, 0],
[0, 1, 4, 1, 5, 0, 4, 0, 1, 5, 3, 0, 1, 2, 4, 3, 1, 3, 4, 1, 1, 3, 0],
[0, 1, 4, 1, 5, 0, 4, 0, 1, 5, 3, 0, 1, 2, 4, 3, 1, 3, 4, 1, 1, 3, 0],
[0, 1, 4, 1, 5, 0, 4, 0, 1, 5, 3, 0, 1, 2, 4, 3, 1, 3, 4, 1, 1, 3, 0],
[0, 1, 4, 1, 5, 0, 4, 0, 1, 5, 3, 0, 1, 2, 4, 3, 1, 3, 4, 1, 1, 3, 0],
[0, 1, 4, 1, 5, 0, 4, 0, 1, 5, 3, 0, 1, 2, 4, 3, 1, 3, 4, 1, 1, 3, 0],
[0, 1, 4, 1, 5, 0, 4, 0, 1, 5, 3, 0, 1, 2, 4, 3, 1, 3, 4, 1, 1, 3, 0],
[0, 1, 4, 1, 5, 0, 4, 0, 1, 5, 3, 0, 1, 2, 4, 3, 1, 3, 4, 1, 1, 3, 0],
[0, 1, 4, 1, 5, 0, 4, 0, 1, 5, 3, 0, 1, 2, 4, 3, 1, 3, 4, 1, 1, 3, 0],
[0, 1, 4, 1, 5, 0, 4, 0, 1, 5, 3, 0, 1, 2, 4, 3, 1, 3, 4, 1, 1, 3, 0],
[0, 1, 4, 1, 5, 0, 4, 0, 1, 5, 3, 0, 1, 2, 4, 3, 1, 3, 4, 1, 1, 3, 0],
[0, 1, 4, 1, 5, 0, 4, 0, 1, 5, 3, 0, 1, 2, 4, 3, 1, 3, 4, 1, 1, 3, 0],
[0, 1, 4, 1, 5, 0, 4, 0, 1, 5, 3, 0, 1, 2, 4, 3, 1, 3, 4, 1, 1, 3, 0],
[0, 1, 4, 1, 5, 0, 4, 0, 1, 5, 3, 0, 1, 2, 4, 3, 1, 3, 4, 1, 1, 3, 0],
[0, 1, 4, 1, 5, 0, 4, 0, 1, 5, 3, 0, 1, 2, 4, 3, 1, 3, 4, 1, 1, 3, 0],
[0, 1, 4, 1, 5, 0, 4, 0, 1, 5, 3, 0, 1, 2, 4, 3, 1, 3, 4, 1, 1, 3, 0],
[0, 1, 4, 1, 5, 0, 4, 0, 1, 5, 3, 0, 1, 2, 4, 3, 1, 3, 4, 1, 1, 3, 0],
[0, 1, 4, 1, 5, 0, 4, 0, 1, 5, 3, 0, 1, 2, 4, 3, 1, 3, 4, 1, 1, 3, 0],
[0, 1, 4, 1, 5, 0, 4, 0, 1, 5, 3, 0, 1, 2, 4, 3, 1, 3, 4, 1, 1, 3, 0],
[0, 1, 4, 1, 5, 0, 4, 0, 1, 5, 3, 0, 1, 2, 4, 3, 1, 3, 4, 1, 1, 3, 0],
[0, 1, 4, 1, 5, 0, 4, 0, 1, 5, 3, 0, 1, 2, 4, 3, 1, 3, 4, 1, 1, 3, 0],
[0, 1, 4, 1, 5, 0, 4, 0, 1, 5, 3, 0, 1, 2, 4, 3, 1, 3, 4, 1, 1, 3, 0],
[0, 1, 4, 1, 5, 0, 4, 0, 1, 5, 3, 0, 1, 2, 4, 3, 1, 3, 4, 1, 1, 3, 0],
[0, 1, 4, 1, 5, 0, 4, 0, 1, 5, 3, 0, 1, 2, 4, 3, 1, 3, 4, 1, 1, 3, 0],
[0, 1, 4, 1, 5, 0, 4, 0, 1, 5, 3, 0, 1, 2, 4, 3, 1, 3, 4, 1, 1, 3, 0],
[0, 1, 4, 1, 5, 0, 4, 0, 1, 5, 3, 0, 1, 2, 4, 3, 1, 3, 4, 1, 1, 3, 0],
[0, 1, 4, 1, 5, 0, 4, 0, 1, 5, 3, 0, 1, 2, 4, 3, 1, 3, 4, 1, 1, 3, 0]
];
M = 30;
I = [
[0, 0, 0, 0, 0, 0, 0, 0, 0, 0, 0, 0, 0, 0, 0, 0, 0, 0, 0, 0, 0, 0, 0],
[5, 2, 5, 4, 3, 1, 4, 1, 6, 0, 2, 6, 5, 2, 0, 3, 0, 5, 5, 3, 6, 3, 0],
[5, 2, 5, 4, 3, 1, 4, 1, 6, 0, 2, 6, 5, 2, 0, 3, 0, 5, 5, 3, 6, 3, 0],
[5, 2, 5, 4, 3, 1, 4, 1, 6, 0, 2, 6, 5, 2, 0, 3, 0, 5, 5, 3, 6, 3, 0],
[5, 2, 5, 4, 3, 1, 4, 1, 6, 0, 2, 6, 5, 2, 0, 3, 0, 5, 5, 3, 6, 3, 0],
[5, 2, 5, 4, 3, 1, 4, 1, 6, 0, 2, 6, 5, 2, 0, 3, 0, 5, 5, 3, 6, 3, 0],
[5, 2, 5, 4, 3, 1, 4, 1, 6, 0, 2, 6, 5, 2, 0, 3, 0, 5, 5, 3, 6, 3, 0],
[5, 2, 5, 4, 3, 1, 4, 1, 6, 0, 2, 6, 5, 2, 0, 3, 0, 5, 5, 3, 6, 3, 0],
[5, 2, 5, 4, 3, 1, 4, 1, 6, 0, 2, 6, 5, 2, 0, 3, 0, 5, 5, 3, 6, 3, 0],
[5, 2, 5, 4, 3, 1, 4, 1, 6, 0, 2, 6, 5, 2, 0, 3, 0, 5, 5, 3, 6, 3, 0],
[5, 2, 5, 4, 3, 1, 4, 1, 6, 0, 2, 6, 5, 2, 0, 3, 0, 5, 5, 3, 6, 3, 0],
[5, 2, 5, 4, 3, 1, 4, 1, 6, 0, 2, 6, 5, 2, 0, 3, 0, 5, 5, 3, 6, 3, 0],
[5, 2, 5, 4, 3, 1, 4, 1, 6, 0, 2, 6, 5, 2, 0, 3, 0, 5, 5, 3, 6, 3, 0],
[5, 2, 5, 4, 3, 1, 4, 1, 6, 0, 2, 6, 5, 2, 0, 3, 0, 5, 5, 3, 6, 3, 0],
[5, 2, 5, 4, 3, 1, 4, 1, 6, 0, 2, 6, 5, 2, 0, 3, 0, 5, 5, 3, 6, 3, 0],
[5, 2, 5, 4, 3, 1, 4, 1, 6, 0, 2, 6, 5, 2, 0, 3, 0, 5, 5, 3, 6, 3, 0],
[5, 2, 5, 4, 3, 1, 4, 1, 6, 0, 2, 6, 5, 2, 0, 3, 0, 5, 5, 3, 6, 3, 0],
[5, 2, 5, 4, 3, 1, 4, 1, 6, 0, 2, 6, 5, 2, 0, 3, 0, 5, 5, 3, 6, 3, 0],
[5, 2, 5, 4, 3, 1, 4, 1, 6, 0, 2, 6, 5, 2, 0, 3, 0, 5, 5, 3, 6, 3, 0],
[5, 2, 5, 4, 3, 1, 4, 1, 6, 0, 2, 6, 5, 2, 0, 3, 0, 5, 5, 3, 6, 3, 0],
[5, 2, 5, 4, 3, 1, 4, 1, 6, 0, 2, 6, 5, 2, 0, 3, 0, 5, 5, 3, 6, 3, 0],
[5, 2, 5, 4, 3, 1, 4, 1, 6, 0, 2, 6, 5, 2, 0, 3, 0, 5, 5, 3, 6, 3, 0],
[5, 2, 5, 4, 3, 1, 4, 1, 6, 0, 2, 6, 5, 2, 0, 3, 0, 5, 5, 3, 6, 3, 0],
[5, 2, 5, 4, 3, 1, 4, 1, 6, 0, 2, 6, 5, 2, 0, 3, 0, 5, 5, 3, 6, 3, 0],
[5, 2, 5, 4, 3, 1, 4, 1, 6, 0, 2, 6, 5, 2, 0, 3, 0, 5, 5, 3, 6, 3, 0],
[5, 2, 5, 4, 3, 1, 4, 1, 6, 0, 2, 6, 5, 2, 0, 3, 0, 5, 5, 3, 6, 3, 0],
[5, 2, 5, 4, 3, 1, 4, 1, 6, 0, 2, 6, 5, 2, 0, 3, 0, 5, 5, 3, 6, 3, 0],
[5, 2, 5, 4, 3, 1, 4, 1, 6, 0, 2, 6, 5, 2, 0, 3, 0, 5, 5, 3, 6, 3, 0],
[5, 2, 5, 4, 3, 1, 4, 1, 6, 0, 2, 6, 5, 2, 0, 3, 0, 5, 5, 3, 6, 3, 0]
];
F = [
[1, 1, 0, 0, 1, 0, 0, 0, 0, 0, 1, 1, 1, 1, 1, 0, 0, 0, 1, 1, 0, 0, 0],
[1, 1, 0, 0, 1, 0, 0, 0, 0, 0, 1, 1, 1, 1, 1, 0, 0, 0, 1, 1, 0, 0, 0],
[1, 1, 0, 0, 1, 0, 0, 0, 0, 0, 1, 1, 1, 1, 1, 0, 0, 0, 1, 1, 0, 0, 0],
[1, 1, 0, 0, 1, 0, 0, 0, 0, 0, 1, 1, 1, 1, 1, 0, 0, 0, 1, 1, 0, 0, 0],
[1, 1, 0, 0, 1, 0, 0, 0, 0, 0, 1, 1, 1, 1, 1, 0, 0, 0, 1, 1, 0, 0, 0],
[1, 1, 0, 0, 1, 0, 0, 0, 0, 0, 1, 1, 1, 1, 1, 0, 0, 0, 1, 1, 0, 0, 0],
[1, 1, 0, 0, 1, 0, 0, 0, 0, 0, 1, 1, 1, 1, 1, 0, 0, 0, 1, 1, 0, 0, 0],
[1, 1, 0, 0, 1, 0, 0, 0, 0, 0, 1, 1, 1, 1, 1, 0, 0, 0, 1, 1, 0, 0, 0],
[1, 1, 0, 0, 1, 0, 0, 0, 0, 0, 1, 1, 1, 1, 1, 0, 0, 0, 1, 1, 0, 0, 0],
[1, 1, 0, 0, 1, 0, 0, 0, 0, 0, 1, 1, 1, 1, 1, 0, 0, 0, 1, 1, 0, 0, 0],
[1, 1, 0, 0, 1, 0, 0, 0, 0, 0, 1, 1, 1, 1, 1, 0, 0, 0, 1, 1, 0, 0, 0],
[1, 1, 0, 0, 1, 0, 0, 0, 0, 0, 1, 1, 1, 1, 1, 0, 0, 0, 1, 1, 0, 0, 0],
[1, 1, 0, 0, 1, 0, 0, 0, 0, 0, 1, 1, 1, 1, 1, 0, 0, 0, 1, 1, 0, 0, 0],
[1, 1, 0, 0, 1, 0, 0, 0, 0, 0, 1, 1, 1, 1, 1, 0, 0, 0, 1, 1, 0, 0, 0],
[1, 1, 0, 0, 1, 0, 0, 0, 0, 0, 1, 1, 1, 1, 1, 0, 0, 0, 1, 1, 0, 0, 0],
[1, 1, 0, 0, 1, 0, 0, 0, 0, 0, 1, 1, 1, 1, 1, 0, 0, 0, 1, 1, 0, 0, 0],
[1, 1, 0, 0, 1, 0, 0, 0, 0, 0, 1, 1, 1, 1, 1, 0, 0, 0, 1, 1, 0, 0, 0],
[1, 1, 0, 0, 1, 0, 0, 0, 0, 0, 1, 1, 1, 1, 1, 0, 0, 0, 1, 1, 0, 0, 0],
[1, 1, 0, 0, 1, 0, 0, 0, 0, 0, 1, 1, 1, 1, 1, 0, 0, 0, 1, 1, 0, 0, 0],
[1, 1, 0, 0, 1, 0, 0, 0, 0, 0, 1, 1, 1, 1, 1, 0, 0, 0, 1, 1, 0, 0, 0],
[1, 1, 0, 0, 1, 0, 0, 0, 0, 0, 1, 1, 1, 1, 1, 0, 0, 0, 1, 1, 0, 0, 0],
[1, 1, 0, 0, 1, 0, 0, 0, 0, 0, 1, 1, 1, 1, 1, 0, 0, 0, 1, 1, 0, 0, 0],
[1, 1, 0, 0, 1, 0, 0, 0, 0, 0, 1, 1, 1, 1, 1, 0, 0, 0, 1, 1, 0, 0, 0],
[1, 1, 0, 0, 1, 0, 0, 0, 0, 0, 1, 1, 1, 1, 1, 0, 0, 0, 1, 1, 0, 0, 0],
[1, 1, 0, 0, 1, 0, 0, 0, 0, 0, 1, 1, 1, 1, 1, 0, 0, 0, 1, 1, 0, 0, 0],
[1, 1, 0, 0, 1, 0, 0, 0, 0, 0, 1, 1, 1, 1, 1, 0, 0, 0, 1, 1, 0, 0, 0],
[1, 1, 0, 0, 1, 0, 0, 0, 0, 0, 1, 1, 1, 1, 1, 0, 0, 0, 1, 1, 0, 0, 0],
[1, 1, 0, 0, 1, 0, 0, 0, 0, 0, 1, 1, 1, 1, 1, 0, 0, 0, 1, 1, 0, 0, 0],
[1, 1, 0, 0, 1, 0, 0, 0, 0, 0, 1, 1, 1, 1, 1, 0, 0, 0, 1, 1, 0, 0, 0]
];
N_P = 17;
n = [1, 1, 3, 1, 3, 2, 1, 2, 2, 2, 3, 1, 2, 1, 3, 1, 1];
p_C = [3, 3, 3, 2, 2, 3, 1, 1, 1, 0, 1, 1, 2, 3, 0, 0, 3];
p_D = [1, 3, 3, 1, 1, 3, 3, 0, 3, 0, 0, 3, 3, 2, 0, 0, 0];
Delta = [
[0],
[0],
[0, 3, 1],
[0],
[0, 1, 1],
[0, 2],
[0],
[0, 2],
[0, 1],
[0, 1],
[0, 2, 3],
[0],
[0, 3],
[0],
[0, 2, 1],
[0],
[0]
];
e_A = [
[0],
[0],
[0, 0, 0],
[0],
[0, 1, 1],
[0, 1],
[1],
[0, 0],
[1, 1],
[1, 1],
[1, 0, 1],
[0],
[0, 1],
[1],
[1, 1, 1],
[0],
[0]
];
e_C = [
[0],
[1],
[0, 1, 1],
[0],
[1, 1, 1],
[0, 0],
[1],
[1, 0],
[1, 1],
[0, 1],
[1, 0, 0],
[1],
[1, 0],
[1],
[1, 1, 0],
[1],
[0]
];
